Problem:    
Rows:       260
Columns:    89 (72 integer, 72 binary)
Non-zeros:  974
Status:     INTEGER OPTIMAL
Objective:  value = 25.198719 (MINimum)

   No.   Row name        Activity     Lower bound   Upper bound
------ ------------    ------------- ------------- -------------
     1 r.5                   25.1987             0               
     2 r.6                   14.3827      -991.018               
     3 r.7                    1025.2             0               
     4 r.8                  -988.663      -992.429               
     5 r.9                   25.1987             0               
     6 r.10                   19.722      -991.261               
     7 r.11                   1025.2             0               
     8 r.12                 -980.278      -992.603               
     9 r.13                   1025.2             0               
    10 r.14                 -987.684      -999.021               
    11 r.15                  25.1987             0               
    12 r.16                   14.337      -998.094               
    13 r.17                   1025.2             0               
    14 r.18                 -989.697      -998.263               
    15 r.19                  25.1987             0               
    16 r.20                  20.7098      -996.942               
    17 r.21                   1025.2             0               
    18 r.22                 -991.434      -996.039               
    19 r.23                  25.1987             0               
    20 r.24                 -992.312      -996.077               
    21 r.25                   1025.2             0               
    22 r.26                 -999.335      -999.335               
    23 r.27                  25.1987             0               
    24 r.28                 -999.146      -999.146               
    25 r.29                  25.1987             0               
    26 r.30                  25.1987       -987.92               
    27 r.31                   1025.2             0               
    28 r.32                 -974.801      -994.523               
    29 r.33                   1025.2             0               
    30 r.34                 -974.801       -988.15               
    31 r.35                  25.1987             0               
    32 r.36                  25.1987      -994.689               
    33 r.37                        1             1             = 
    34 r.38                        1             1             = 
    35 r.39                        1             1             = 
    36 r.40                        1             1             = 
    37 r.41                        1             1             = 
    38 r.42                        1             1             = 
    39 r.43                        1             1             = 
    40 r.44                        1             1             = 
    41 r.45                     1000             2               
    42 r.46                    -1000         -1001               
    43 r.47                  2006.37      -991.261               
    44 r.48                        2             2               
    45 r.49                       -2         -1001               
    46 r.50                 -992.603      -992.603               
    47 r.51                     1001             2               
    48 r.52                    -1001         -1001               
    49 r.53                  1998.97      -999.021               
    50 r.54                     1001             2               
    51 r.55                    -1001         -1001               
    52 r.56                  2002.01      -998.094               
    53 r.57                     1001             2               
    54 r.58                    -1001         -1001               
    55 r.59                  1996.95      -998.263               
    56 r.60                     1001             2               
    57 r.61                    -1001         -1001               
    58 r.62                  2008.39      -996.942               
    59 r.63                     1001             2               
    60 r.64                    -1001         -1001               
    61 r.65                  1995.22      -996.039               
    62 r.66                     1001             2               
    63 r.67                    -1001         -1001               
    64 r.68                  995.363      -996.077               
    65 r.69                  10.6174      -991.018               
    66 r.70                 -992.429      -992.429               
    67 r.71                  1016.49      -991.018               
    68 r.72                  13.4457      -992.429               
    69 r.73                  11.8496       -987.92               
    70 r.74                  -988.15      -994.523               
    71 r.75                  12.8742       -987.92               
    72 r.76                 -987.126      -994.523               
    73 r.77                  -988.15       -988.15               
    74 r.78                  11.8496      -994.689               
    75 r.79                 -987.126       -988.15               
    76 r.80                  12.8742      -994.689               
    77 r.81                     1000             2               
    78 r.82                    -1000         -1001               
    79 r.83                  1994.66        8.9823               
    80 r.84                        2             2               
    81 r.85                       -2         -1001               
    82 r.86                  991.615       7.57136               
    83 r.87                     1001             2               
    84 r.88                    -1001         -1001               
    85 r.89                  1992.59      -999.021               
    86 r.90                     1001             2               
    87 r.91                    -1001         -1001               
    88 r.92                  1994.61      -998.094               
    89 r.93                     1001             2               
    90 r.94                    -1001         -1001               
    91 r.95                  1990.58      -998.263               
    92 r.96                     1001             2               
    93 r.97                    -1001         -1001               
    94 r.98                  2000.99      -996.942               
    95 r.99                     1001             2               
    96 r.100                   -1001         -1001               
    97 r.101                 1988.84      -996.039               
    98 r.102                    1001             2               
    99 r.103                   -1001         -1001               
   100 r.104                 987.966      -996.077               
   101 r.105                 15.9567      -991.261               
   102 r.106                -984.043      -992.603               
   103 r.107                 1021.83      -991.261               
   104 r.108                  21.831      -992.603               
   105 r.109                 5.47675       -987.92               
   106 r.110                -994.523      -994.523               
   107 r.111                 5.47675       -987.92               
   108 r.112                -994.523      -994.523               
   109 r.113                    1001             2               
   110 r.114                   -1001         -1001               
   111 r.115                 2005.48       -988.15               
   112 r.116                    1001             2               
   113 r.117                   -1001         -1001               
   114 r.118                 2005.48      -994.689               
   115 r.119                    1001             2               
   116 r.120                   -1001         -1001               
   117 r.121                 2001.03        8.9823               
   118 r.122                    1001             2               
   119 r.123                   -1001         -1001               
   120 r.124                 1997.99       7.57136               
   121 r.125                    1001             2               
   122 r.126                   -1001         -1001               
   123 r.127                 2006.37       8.73943               
   124 r.128                    1001             2               
   125 r.129                   -1001         -1001               
   126 r.130                 2006.37       7.39748               
   127 r.131                       2             2               
   128 r.132                      -2         -1001               
   129 r.133                -3.04613      -998.263               
   130 r.134                    1000             2               
   131 r.135                   -1000         -1001               
   132 r.136                 2007.36      -996.942               
   133 r.137                       2             2               
   134 r.138                      -2         -1001               
   135 r.139                -4.78309      -996.039               
   136 r.140                    1000             2               
   137 r.141                   -1000         -1001               
   138 r.142                 994.339      -996.077               
   139 r.143                 -991.45      -999.021               
   140 r.144                 10.5717      -998.094               
   141 r.145                 14.4246      -999.021               
   142 r.146                 1016.45      -998.094               
   143 r.147                 11.8496       -987.92               
   144 r.148                 -988.15      -994.523               
   145 r.149                 11.8496       -987.92               
   146 r.150                 -988.15      -994.523               
   147 r.151                 -988.15       -988.15               
   148 r.152                 11.8496      -994.689               
   149 r.153                 -988.15       -988.15               
   150 r.154                 11.8496      -994.689               
   151 r.155                    1001             2               
   152 r.156                   -1001         -1001               
   153 r.157                 2003.05        8.9823               
   154 r.158                    1001             2               
   155 r.159                   -1001         -1001               
   156 r.160                 1991.61       7.57136               
   157 r.161                    1001             2               
   158 r.162                   -1001         -1001               
   159 r.163                 2008.39       8.73943               
   160 r.164                    1001             2               
   161 r.165                   -1001         -1001               
   162 r.166                    2000       7.39748               
   163 r.167                       2             2               
   164 r.168                      -2         -1001               
   165 r.169                   0.979         0.979               
   166 r.170                    1000             2               
   167 r.171                   -1000         -1001               
   168 r.172                 1994.61       1.90635               
   169 r.173                       2             2               
   170 r.174                      -2         -1001               
   171 r.175                -2.77052      -996.039               
   172 r.176                    1000             2               
   173 r.177                   -1000         -1001               
   174 r.178                 987.966      -996.077               
   175 r.179                -993.462      -998.263               
   176 r.180                 16.9445      -996.942               
   177 r.181                 12.4121      -998.263               
   178 r.182                 1022.82      -996.942               
   179 r.183                 13.8622       -987.92               
   180 r.184                -986.138      -994.523               
   181 r.185                 5.47675       -987.92               
   182 r.186                -994.523      -994.523               
   183 r.187                       2             2               
   184 r.188                      -2         -1001               
   185 r.189                -986.138       -988.15               
   186 r.190                    1000             2               
   187 r.191                   -1000         -1001               
   188 r.192                 2005.48      -994.689               
   189 r.193                    1001             2               
   190 r.194                   -1001         -1001               
   191 r.195                 2005.82        8.9823               
   192 r.196                    1001             2               
   193 r.197                   -1001         -1001               
   194 r.198                 3003.65       7.57136               
   195 r.199                    1001             2               
   196 r.200                   -1001         -1001               
   197 r.201                 2011.16       8.73943               
   198 r.202                    1001             2               
   199 r.203                   -1001         -1001               
   200 r.204                 3012.03       7.39748               
   201 r.205                       2             2               
   202 r.206                      -2         -1001               
   203 r.207                 3.74952         0.979               
   204 r.208                    1000             2               
   205 r.209                   -1000         -1001               
   206 r.210                 3006.65       1.90635               
   207 r.211                       2             2               
   208 r.212                      -2         -1001               
   209 r.213                 1.73696       1.73696               
   210 r.214                    1000             2               
   211 r.215                   -1000         -1001               
   212 r.216                 3013.02       3.05776               
   213 r.217                -995.199      -996.039               
   214 r.218                -996.077      -996.077               
   215 r.219                 10.6751      -996.039               
   216 r.220                 9.79704      -996.077               
   217 r.221                    1001             2               
   218 r.222                   -1001         -1001               
   219 r.223                 2016.63       -987.92               
   220 r.224                    1001             2               
   221 r.225                   -1001         -1001               
   222 r.226                 3017.51      -994.523               
   223 r.227                -983.367       -988.15               
   224 r.228                 16.6327      -994.689               
   225 r.229                 17.5107       -988.15               
   226 r.230                 1017.51      -994.689               
   227 r.231                 21.4334       -987.92               
   228 r.232                -978.567      -994.523               
   229 r.233                 1027.31       -987.92               
   230 r.234                 27.3078      -994.523               
   231 r.235                    1001             2               
   232 r.236                   -1001         -1001               
   233 r.237                 1983.37        3.9614               
   234 r.238                    1001             2               
   235 r.239                   -1001         -1001               
   236 r.240                 982.489       3.92268               
   237 r.241                    1001             2               
   238 r.242                   -1001         -1001               
   239 r.243                    2000       -988.15               
   240 r.244                    1001             2               
   241 r.245                   -1001         -1001               
   242 r.246                    2000      -994.689               
   243 r.247                    1001             2               
   244 r.248                   -1001         -1001               
   245 r.249                 1994.52       8.73943               
   246 r.250                    1001             2               
   247 r.251                   -1001         -1001               
   248 r.252                 1994.52       7.39748               
   249 r.253                       2             2               
   250 r.254                      -2         -1001               
   251 r.255                 985.104       1.73696               
   252 r.256                    1000             2               
   253 r.257                   -1000         -1001               
   254 r.258                 1995.51       3.05776               
   255 r.259                    1001             2               
   256 r.260                   -1001         -1001               
   257 r.261                    2000       12.0802               
   258 r.262                    1001             2               
   259 r.263                   -1001         -1001               
   260 r.264                    2000       5.47675               

   No. Column name       Activity     Lower bound   Upper bound
------ ------------    ------------- ------------- -------------
     1 tt                    25.1987             0               
     2 s_1_1        *              0             0             1 
     3 t_1_1                 11.8496             0               
     4 s_1_8        *              1             0             1 
     5 s_1_7        *              0             0             1 
     6 s_2_1        *              1             0             1 
     7 t_2_1                 12.8742             0               
     8 s_2_8        *              0             0             1 
     9 s_2_7        *              1             0             1 
    10 s_1_2        *              0             0             1 
    11 t_1_2                 5.47675             0               
    12 s_2_2        *              1             0             1 
    13 t_2_2                 5.47675             0               
    14 s_1_3        *              1             0             1 
    15 t_1_3                 11.8496             0               
    16 s_2_3        *              0             0             1 
    17 t_2_3                 11.8496             0               
    18 s_1_4        *              1             0             1 
    19 t_1_4                 13.8622             0               
    20 s_2_4        *              0             0             1 
    21 t_2_4                 5.47675             0               
    22 s_1_5        *              1             0             1 
    23 t_1_5                 16.6327             0               
    24 s_2_5        *              0             0             1 
    25 t_2_5                 1017.51             0               
    26 s_1_6        *              1             0             1 
    27 t_1_6                 21.4334             0               
    28 s_2_6        *              0             0             1 
    29 t_2_6                 1027.31             0               
    30 t_1_7                       0             0               
    31 t_2_7                       0             0               
    32 t_1_8                       0             0               
    33 t_2_8                       0             0               
    34 r_1_1_2      *              1             0             1 
    35 u_1_1_2      *              0             0             1 
    36 r_2_1_2      *              0             0             1 
    37 u_2_1_2      *              1             0             1 
    38 r_1_1_3      *              1             0             1 
    39 u_1_1_3      *              0             0             1 
    40 r_2_1_3      *              1             0             1 
    41 u_2_1_3      *              0             0             1 
    42 r_1_1_4      *              1             0             1 
    43 u_1_1_4      *              0             0             1 
    44 r_2_1_4      *              1             0             1 
    45 u_2_1_4      *              0             0             1 
    46 r_1_1_5      *              1             0             1 
    47 u_1_1_5      *              0             0             1 
    48 r_2_1_5      *              1             0             1 
    49 u_2_1_5      *              0             0             1 
    50 r_1_2_3      *              1             0             1 
    51 u_1_2_3      *              0             0             1 
    52 r_2_2_3      *              1             0             1 
    53 u_2_2_3      *              0             0             1 
    54 r_1_2_4      *              1             0             1 
    55 u_1_2_4      *              0             0             1 
    56 r_2_2_4      *              1             0             1 
    57 u_2_2_4      *              0             0             1 
    58 r_1_2_5      *              1             0             1 
    59 u_1_2_5      *              0             0             1 
    60 r_2_2_5      *              1             0             1 
    61 u_2_2_5      *              0             0             1 
    62 r_1_2_8      *              1             0             1 
    63 u_1_2_8      *              0             0             1 
    64 r_2_2_8      *              1             0             1 
    65 u_2_2_8      *              0             0             1 
    66 r_1_3_4      *              0             0             1 
    67 u_1_3_4      *              0             0             1 
    68 r_2_3_4      *              1             0             1 
    69 u_2_3_4      *              0             0             1 
    70 r_1_3_5      *              0             0             1 
    71 u_1_3_5      *              0             0             1 
    72 r_2_3_5      *              1             0             1 
    73 u_2_3_5      *              0             0             1 
    74 r_1_4_5      *              0             0             1 
    75 u_1_4_5      *              0             0             1 
    76 r_2_4_5      *              1             0             1 
    77 u_2_4_5      *              0             0             1 
    78 r_1_4_8      *              0             0             1 
    79 u_1_4_8      *              1             0             1 
    80 r_2_4_8      *              1             0             1 
    81 u_2_4_8      *              0             0             1 
    82 r_1_5_7      *              1             0             1 
    83 u_1_5_7      *              0             0             1 
    84 r_2_5_7      *              1             0             1 
    85 u_2_5_7      *              0             0             1 
    86 r_1_7_8      *              1             0             1 
    87 u_1_7_8      *              0             0             1 
    88 r_2_7_8      *              1             0             1 
    89 u_2_7_8      *              0             0             1 

Integer feasibility conditions:

KKT.PE: max.abs.err = 4.55e-13 on row 200
        max.rel.err = 1.11e-16 on row 22
        High quality

KKT.PB: max.abs.err = 2.27e-13 on row 22
        max.rel.err = 2.27e-16 on row 22
        High quality

End of output
